(set-logic HORN)
(declare-fun state ((Array Int Int) (Array Int Int) (Array Int Int) Int Int Int (Array Int Int) Int (Array Int Int) Int (Array Int Int) Int (Array Int Int) Int (Array Int Int) Int (Array Int Int) Bool Int Int (Array Int Int) Bool Bool Bool Bool Bool Bool Bool (Array Int Int) (Array Int Int) (Array Int Int) Int) Bool)
(assert (forall ((|.y.26| (Array Int Int)) (|.y.27| (Array Int Int)) (|.y.28| (Array Int Int)) (|J_12| Int) (|.y.29| Int) (|.y.30| Int) (|X_12| (Array Int Int)) (|Y_11| Int) (|.y.31| (Array Int Int)) (|A_13| Int) (|.y.32| (Array Int Int)) (|T_12| Int) (|B_13| (Array Int Int)) (|D_12| Int) (|E_12| (Array Int Int)) (|L_12| Int) (|M_12| (Array Int Int)) (|.y.33| Bool) (|.y.34| Int) (|.y.35| Int) (|.y.36| (Array Int Int)) (|.loc.37| Bool) (|.loc.38| Bool) (|.loc.39| Bool) (|.loc.40| Bool) (|R_9| Bool) (|Q_9| Bool) (|O_9| Bool) (|P_9| (Array Int Int)) (|L_9| (Array Int Int)) (|S_9| (Array Int Int)) (|U_9| Int) (|.loc.65| Bool) (|.loc.63| Bool) (|.loc.64| Bool) (|.y.57| (Array Int Int)) (|.y.56| Int) (|.y.55| (Array Int Int)) (|.y.54| Int) (|.y.53| (Array Int Int)) (|.y.50| Int) (|.y.48| Int) (|.y.47| (Array Int Int)) (|.y.52| Int) (|.y.44| Int) (|.loc.62| Bool) (|.y.61| (Array Int Int)) (|.y.60| Int) (|.y.59| Int) (|.y.58| Bool) (|.y.45| Int) (|.y.46| Int) (|.y.49| (Array Int Int)) (|.y.51| (Array Int Int)) (|.y.41| (Array Int Int)) (|.y.42| (Array Int Int)) (|.y.43| (Array Int Int)) (|.xtv.1| Bool) (|.xtv.2| Bool) (|.xtv.3| Bool) (|.xtv.4| (Array Int Int)) (|.xtv.5| (Array Int Int)) (|.xtv.6| (Array Int Int)) (|.xtv.7| Int)) (=> (and (and (and (not .loc.37) (not .loc.38)) (not .loc.39)) (not .loc.40)) (state |.y.26| |.y.27| |.y.28| |J_12| |.y.29| |.y.30| |X_12| |Y_11| |.y.31| |A_13| |.y.32| |T_12| |B_13| |D_12| |E_12| |L_12| |M_12| |.y.33| |.y.34| |.y.35| |.y.36| |.loc.37| |.loc.38| |.loc.39| |.loc.40| |R_9| |Q_9| |O_9| |P_9| |L_9| |S_9| |U_9|))))
(assert (forall ((|.y.26| (Array Int Int)) (|.y.27| (Array Int Int)) (|.y.28| (Array Int Int)) (|J_12| Int) (|.y.29| Int) (|.y.30| Int) (|X_12| (Array Int Int)) (|Y_11| Int) (|.y.31| (Array Int Int)) (|A_13| Int) (|.y.32| (Array Int Int)) (|T_12| Int) (|B_13| (Array Int Int)) (|D_12| Int) (|E_12| (Array Int Int)) (|L_12| Int) (|M_12| (Array Int Int)) (|.y.33| Bool) (|.y.34| Int) (|.y.35| Int) (|.y.36| (Array Int Int)) (|.loc.37| Bool) (|.loc.38| Bool) (|.loc.39| Bool) (|.loc.40| Bool) (|R_9| Bool) (|Q_9| Bool) (|O_9| Bool) (|P_9| (Array Int Int)) (|L_9| (Array Int Int)) (|S_9| (Array Int Int)) (|U_9| Int) (|.loc.65| Bool) (|.loc.63| Bool) (|.loc.64| Bool) (|.y.57| (Array Int Int)) (|.y.56| Int) (|.y.55| (Array Int Int)) (|.y.54| Int) (|.y.53| (Array Int Int)) (|.y.50| Int) (|.y.48| Int) (|.y.47| (Array Int Int)) (|.y.52| Int) (|.y.44| Int) (|.loc.62| Bool) (|.y.61| (Array Int Int)) (|.y.60| Int) (|.y.59| Int) (|.y.58| Bool) (|.y.45| Int) (|.y.46| Int) (|.y.49| (Array Int Int)) (|.y.51| (Array Int Int)) (|.y.41| (Array Int Int)) (|.y.42| (Array Int Int)) (|.y.43| (Array Int Int)) (|.xtv.1| Bool) (|.xtv.2| Bool) (|.xtv.3| Bool) (|.xtv.4| (Array Int Int)) (|.xtv.5| (Array Int Int)) (|.xtv.6| (Array Int Int)) (|.xtv.7| Int)) (=> (and (state |.y.26| |.y.27| |.y.28| |J_12| |.y.29| |.y.30| |X_12| |Y_11| |.y.31| |A_13| |.y.32| |T_12| |B_13| |D_12| |E_12| |L_12| |M_12| |.y.33| |.y.34| |.y.35| |.y.36| |.loc.37| |.loc.38| |.loc.39| |.loc.40| |R_9| |Q_9| |O_9| |P_9| |L_9| |S_9| |U_9|) (let ((.def_42 (not .loc.37))) (let ((.def_43 (not .loc.38))) (let ((.def_45 (not .loc.39))) (let ((.def_52 (<= (select X_12 Y_11) (- 1)))) (let ((.def_54 (* 4 T_12))) (let ((.def_60 (<= D_12 0))) (let ((.def_61 (or (not (<= (+ .def_54 D_12) 0)) .def_60))) (let ((.def_68 (<= J_12 0))) (let ((.def_69 (or (not (<= (+ J_12 (* 4 (select B_13 (+ A_13 .def_54)))) 0)) .def_68))) (let ((.def_75 (or .def_68 (not (<= (+ J_12 (* 4 (select E_12 (+ .def_54 D_12)))) 0))))) (let ((.def_80 (<= L_12 0))) (let ((.def_81 (or (not (<= (+ .def_54 L_12) 0)) .def_80))) (let ((.def_92 (<= (+ (select X_12 (+ J_12 (* 4 (select B_13 (+ A_13 .def_54))))) (+ (* (- 1) (select M_12 (+ .def_54 L_12))) (* (- 1) (select X_12 (+ J_12 (* 4 (select E_12 (+ .def_54 D_12)))))))) 0))) (let ((.def_94 (<= 19 T_12))) (let ((.def_97 (<= A_13 0))) (let ((.def_98 (not .def_97))) (let ((.def_99 (not .def_68))) (let ((.def_102 (and (not .def_80) (and (not .def_60) (and .def_98 .def_99))))) (let ((.def_111 (or .def_97 (not (<= (+ A_13 .def_54) 0))))) (let ((.def_112 (and (and .def_61 (and .def_69 (and .def_75 (and .def_81 (and .def_92 (and .def_94 .def_102)))))) .def_111))) (let ((.def_121 (<= .y.35 0))) (let ((.def_122 (or (not (<= (+ (* 4 .y.34) .y.35) (- 4))) .def_121))) (let ((.def_124 (not .y.33))) (let ((.def_129 (<= (select .y.36 (+ (+ (* 4 .y.34) .y.35) 4)) (- 1)))) (let ((.def_131 (not .def_121))) (let ((.def_134 (not (<= 4 .y.34)))) (let ((.def_140 (not .loc.63))) (let ((.def_143 (not .loc.64))) (let ((.def_162 (not O_9))) (let ((.def_165 (not Q_9))) (let ((.def_166 (not R_9))) (let ((.def_167 (or .def_165 .def_166))) (let ((.def_175 (select .y.32 (+ A_13 .def_54)))) (let ((.def_181 (select B_13 (+ J_12 (* 4 (select .y.31 (+ Y_11 .def_54))))))) (let ((.def_187 (<= (+ (select B_13 (+ J_12 (* 4 (select X_12 (+ .y.30 .def_54))))) (+ (* (- 1) .def_175) (* (- 1) .def_181))) 0))) (let ((.def_193 (or .def_162 (and Q_9 O_9)))) (let ((.def_195 (or Q_9 .def_166))) (let ((.def_201 (or .def_162 (= P_9 L_9)))) (let ((.def_204 (or O_9 (and R_9 Q_9)))) (let ((.def_205 (and (and (and .def_111 (and .def_98 (and .def_99 (and (and (<= 20 U_9) .def_193) .def_195)))) .def_201) .def_204))) (let ((.def_206 (and .loc.37 .def_205))) (let ((.def_207 (and .loc.63 .def_206))) (let ((.def_209 (not .loc.65))) (let ((.def_212 (or .def_99 .def_162))) (let ((.def_217 (or .def_162 (= L_9 (store B_13 (+ J_12 (* 4 (select X_12 (+ .y.30 .def_54)))) (+ .def_175 .def_181)))))) (let ((.def_221 (= (+ T_12 (* (- 1) U_9)) (- 1)))) (let ((.def_225 (<= Y_11 0))) (let ((.def_226 (or (not (<= (+ Y_11 .def_54) 0)) .def_225))) (let ((.def_230 (or .def_68 (not (<= (+ J_12 (* 4 (select X_12 (+ .y.30 .def_54)))) 0))))) (let ((.def_234 (or .def_68 (not (<= (+ J_12 (* 4 (select .y.31 (+ Y_11 .def_54)))) 0))))) (let ((.def_238 (<= .y.30 0))) (let ((.def_239 (or (not (<= (+ .y.30 .def_54) 0)) .def_238))) (let ((.def_242 (= .y.52 0))) (let ((.def_246 (or (or .def_162 .def_165) (not .def_187)))) (let ((.def_251 (or .def_167 (= B_13 S_9)))) (let ((.def_254 (not .def_225))) (let ((.def_256 (not .def_238))) (let ((.def_259 (= J_12 .y.44))) (let ((.def_290 (= (+ T_12 (* (- 1) .y.52)) (- 1)))) (let ((.def_292 (= X_12 .y.47))) (let ((.def_294 (= Y_11 .y.48))) (let ((.def_296 (= A_13 .y.50))) (let ((.def_305 (not .loc.62))) (let ((.def_369 (or .def_162 (= P_9 .y.53)))) (let ((.def_371 (or .def_167 .def_187))) (let ((.def_374 (or .def_167 (= S_9 .y.53)))) (let ((.def_377 (= .y.29 .y.45))) (let ((.def_380 (= .y.30 .y.46))) (let ((.def_383 (= .y.31 .y.49))) (let ((.def_386 (= .y.32 .y.51))) (let ((.def_394 (and .def_204 (and .def_201 (and .def_111 (and .def_98 (and .def_99 (and .def_193 .def_195)))))))) (let ((.def_395 (and .loc.37 .def_394))) (let ((.def_396 (and .loc.62 .def_395))) (let ((.def_424 (not (<= 20 .y.52)))) (let ((.def_614 (<= .y.44 0))) (and (not .loc.40) (or (or (or (or (or (or (or (or (and .loc.39 (or (or (or (or (and (or (or (and (or (and .def_42 (and .def_52 .def_112)) (and (and (and (and (and .loc.37 .def_122) .def_124) .def_129) .def_131) .def_134)) (and (and (and .loc.38 .loc.65) .def_140) .def_143)) (and (= .y.32 .y.57) (and (= A_13 .y.56) (and (= .y.31 .y.55) (and (= Y_11 .y.54) (and (= X_12 .y.53) (and (= .y.30 .y.50) (and (= .y.29 .y.48) (and (and (and (and (or (= P_9 .y.47) .def_162) (and (and (or (= S_9 .y.47) .def_167) (and (or .def_166 (or .def_165 .def_187)) (and (and (and (and (and (and (and (and (and (and .def_43 (and (and .loc.64 .def_207) .def_209)) .def_212) .def_217) .def_221) .def_226) .def_230) .def_234) .def_239) .def_242) .def_246))) .def_251)) .def_254) .def_256) .def_259))))))))) (and (= M_12 .y.57) (and (= L_12 .y.56) (and (= E_12 .y.55) (and (= D_12 .y.54) (and (= B_13 .y.53) (and (and (and (and (and .def_259 (and .def_209 (and .loc.64 (and .loc.63 (and .def_42 (and .loc.38 (and .def_111 (and .def_61 (and .def_69 (and .def_75 (and .def_81 (and .def_92 (and .def_102 (not .def_94)))))))))))))) .def_290) .def_292) .def_294) .def_296))))))) .def_305) (and (= X_12 .y.61) (and (= J_12 .y.60) (and (= .y.59 0) (and (= .def_52 .y.58) (and .def_209 (and .loc.64 (and .loc.63 (and .loc.62 (and .def_42 (and .loc.38 .def_112))))))))))) (and (= .y.36 .y.61) (and (= .y.35 .y.60) (and (= (+ .y.34 (* (- 1) .y.59)) (- 1)) (and (= .def_129 .y.58) (and .def_209 (and .def_134 (and .def_131 (and .def_124 (and .def_122 (and .loc.64 (and .loc.63 (and .loc.62 (and .loc.37 .loc.38)))))))))))))) (and (and (and (and (and (and (and (and .def_296 (and .def_294 (and .def_292 (and .def_259 (and .def_256 (and .def_254 (and .def_251 (and .def_246 (and .def_242 (and .def_239 (and .def_234 (and .def_230 (and .def_226 (and .def_221 (and .def_217 (and .def_212 (and .def_43 (and .def_209 (and .def_140 (and .loc.64 (and .loc.62 (and .def_42 .def_205)))))))))))))))))))))) .def_369) .def_371) .def_374) .def_377) .def_380) .def_383) .def_386)) (and (and .def_386 (and .def_383 (and .def_380 (and .def_377 (and .def_374 (and .def_371 (and .def_369 (and .def_296 (and .def_294 (and .def_292 (and .def_290 (and .def_259 (and .def_256 (and .def_254 (and .def_251 (and .def_246 (and .def_239 (and .def_234 (and .def_230 (and .def_226 (and .def_217 (and .def_212 (and .def_43 (and .def_209 (and .def_140 (and .loc.64 .def_396)))))))))))))))))))))))))) .def_424))) (and .def_45 (and .def_386 (and .def_383 (and .def_380 (and .def_377 (and .def_374 (and .def_371 (and .def_369 (and .def_296 (and .def_294 (and .def_292 (and .def_259 (and .def_256 (and .def_254 (and .def_251 (and .def_246 (and .def_242 (and .def_239 (and .def_234 (and .def_230 (and .def_226 (and .def_221 (and .def_217 (and .def_212 (and .def_209 (and .def_140 (and .def_305 (and .loc.64 (and .loc.38 .def_206)))))))))))))))))))))))))))))) (and .def_424 (and .def_386 (and .def_383 (and .def_380 (and .def_377 (and .def_374 (and .def_371 (and .def_369 (and .def_296 (and .def_294 (and .def_292 (and .def_290 (and .def_259 (and .def_256 (and .def_254 (and .def_251 (and .def_246 (and .def_239 (and .def_234 (and .def_230 (and .def_226 (and .def_217 (and .def_212 (and .def_43 (and .def_209 (and .def_140 (and .def_305 (and .loc.64 (and .def_42 (and .loc.39 .def_394))))))))))))))))))))))))))))))) (and .def_45 (and .def_386 (and .def_383 (and .def_380 (and .def_377 (and .def_374 (and .def_371 (and .def_369 (and .def_296 (and .def_294 (and .def_292 (and .def_259 (and .def_256 (and .def_254 (and .def_251 (and .def_246 (and .def_242 (and .def_239 (and .def_234 (and .def_230 (and .def_226 (and .def_221 (and .def_217 (and .def_212 (and .def_209 (and .def_143 (and .loc.63 (and .loc.62 (and .def_42 (and .loc.38 .def_205))))))))))))))))))))))))))))))) (and .def_45 (and .def_424 (and .def_386 (and .def_383 (and .def_380 (and .def_377 (and .def_374 (and .def_371 (and .def_369 (and .def_296 (and .def_294 (and .def_292 (and .def_290 (and .def_259 (and .def_256 (and .def_254 (and .def_251 (and .def_246 (and .def_239 (and .def_234 (and .def_230 (and .def_226 (and .def_217 (and .def_212 (and .def_209 (and .def_143 (and .loc.63 (and .loc.62 (and .loc.38 .def_395)))))))))))))))))))))))))))))) (and .def_45 (and .def_386 (and .def_383 (and .def_380 (and .def_377 (and .def_374 (and .def_371 (and .def_369 (and .def_296 (and .def_294 (and .def_292 (and .def_259 (and .def_256 (and .def_254 (and .def_251 (and .def_246 (and .def_242 (and .def_239 (and .def_234 (and .def_230 (and .def_226 (and .def_221 (and .def_217 (and .def_212 (and .def_43 (and .def_209 (and .def_143 (and .def_207 .def_305))))))))))))))))))))))))))))) (and .def_45 (and .def_424 (and .def_386 (and .def_383 (and .def_380 (and .def_377 (and .def_374 (and .def_371 (and .def_369 (and .def_296 (and .def_294 (and .def_292 (and .def_290 (and .def_259 (and .def_256 (and .def_254 (and .def_251 (and .def_246 (and .def_239 (and .def_234 (and .def_230 (and .def_226 (and .def_217 (and .def_212 (and .def_209 (and .def_143 (and .def_305 (and .loc.63 (and .def_42 (and .loc.38 .def_394))))))))))))))))))))))))))))))) (and (= .y.28 .y.51) (and (= .y.27 .y.49) (and (= .y.26 .y.47) (and (= .y.44 .y.45) (and (not .def_614) (and (or .def_614 (not (<= .y.44 (- 4)))) (and (or .def_614 (not (<= .y.44 (- 8)))) (and (or .def_614 (not (<= .y.44 (- 12)))) (and (or .def_614 (not (<= .y.45 0))) (and (or .def_614 (not (<= .y.44 (- 16)))) (and (= .y.53 (store (store (store (store (store L_9 .y.45 0) (+ .y.44 4) 899) (+ .y.44 8) 899) (+ .y.44 12) 899) (+ .y.44 16) 899)) (and .def_45 (and .def_242 (and .def_43 (and .def_209 (and .def_143 (and .def_140 (and .def_42 .loc.62))))))))))))))))))) (and .def_45 (and .def_424 (and .def_386 (and .def_383 (and .def_380 (and .def_377 (and .def_374 (and .def_371 (and .def_369 (and .def_296 (and .def_294 (and .def_292 (and .def_290 (and .def_259 (and .def_256 (and .def_254 (and .def_251 (and .def_246 (and .def_239 (and .def_234 (and .def_230 (and .def_226 (and .def_217 (and .def_212 (and .def_43 (and .def_209 (and .def_143 (and .def_140 .def_396)))))))))))))))))))))))))))))))))))))))))))))))))))))))))))))))))))))))))))))))))))))))))))))))))))))))))) (state |.y.41| |.y.42| |.y.43| |.y.44| |.y.45| |.y.46| |.y.47| |.y.48| |.y.49| |.y.50| |.y.51| |.y.52| |.y.53| |.y.54| |.y.55| |.y.56| |.y.57| |.y.58| |.y.59| |.y.60| |.y.61| |.loc.62| |.loc.63| |.loc.64| |.loc.65| |.xtv.1| |.xtv.2| |.xtv.3| |.xtv.4| |.xtv.5| |.xtv.6| |.xtv.7|))))
(assert (forall ((|.y.26| (Array Int Int)) (|.y.27| (Array Int Int)) (|.y.28| (Array Int Int)) (|J_12| Int) (|.y.29| Int) (|.y.30| Int) (|X_12| (Array Int Int)) (|Y_11| Int) (|.y.31| (Array Int Int)) (|A_13| Int) (|.y.32| (Array Int Int)) (|T_12| Int) (|B_13| (Array Int Int)) (|D_12| Int) (|E_12| (Array Int Int)) (|L_12| Int) (|M_12| (Array Int Int)) (|.y.33| Bool) (|.y.34| Int) (|.y.35| Int) (|.y.36| (Array Int Int)) (|.loc.37| Bool) (|.loc.38| Bool) (|.loc.39| Bool) (|.loc.40| Bool) (|R_9| Bool) (|Q_9| Bool) (|O_9| Bool) (|P_9| (Array Int Int)) (|L_9| (Array Int Int)) (|S_9| (Array Int Int)) (|U_9| Int) (|.loc.65| Bool) (|.loc.63| Bool) (|.loc.64| Bool) (|.y.57| (Array Int Int)) (|.y.56| Int) (|.y.55| (Array Int Int)) (|.y.54| Int) (|.y.53| (Array Int Int)) (|.y.50| Int) (|.y.48| Int) (|.y.47| (Array Int Int)) (|.y.52| Int) (|.y.44| Int) (|.loc.62| Bool) (|.y.61| (Array Int Int)) (|.y.60| Int) (|.y.59| Int) (|.y.58| Bool) (|.y.45| Int) (|.y.46| Int) (|.y.49| (Array Int Int)) (|.y.51| (Array Int Int)) (|.y.41| (Array Int Int)) (|.y.42| (Array Int Int)) (|.y.43| (Array Int Int)) (|.xtv.1| Bool) (|.xtv.2| Bool) (|.xtv.3| Bool) (|.xtv.4| (Array Int Int)) (|.xtv.5| (Array Int Int)) (|.xtv.6| (Array Int Int)) (|.xtv.7| Int)) (=> (state |.y.26| |.y.27| |.y.28| |J_12| |.y.29| |.y.30| |X_12| |Y_11| |.y.31| |A_13| |.y.32| |T_12| |B_13| |D_12| |E_12| |L_12| |M_12| |.y.33| |.y.34| |.y.35| |.y.36| |.loc.37| |.loc.38| |.loc.39| |.loc.40| |R_9| |Q_9| |O_9| |P_9| |L_9| |S_9| |U_9|) (not (and .loc.40 (and (and (not .loc.37) (not .loc.38)) (not .loc.39)))))))
(check-sat)
